(set-info :smt-lib-version 2.6)
(set-logic QF_SLIA)
(set-info :source |
Generated by: Joel Day, Thorsten Ehlers, Mitja Kulczynski, Federico Mora, Florin Manea, Dirk Nowotka, Danny Poulsen, Zhengyang Lu
Application: Test WOORPJE
Target solver: WOORPJE
Publications: Day, J. D., Ehlers, T., Kulczynski, M., Manea, F., Nowotka, D., & Poulsen, D. B. (2019). On solving word equations using SAT. In RP 2019
Description: Enriches a system of 30 word equations by suitable linear constraints
|)
(set-info :license "https://creativecommons.org/licenses/by/4.0/")
(set-info :category "random")
(set-info :status unknown)

(declare-fun E () String)
(declare-fun J () String)
(assert (= (str.++  "dfdbfe" J "eabdbdeadcfb" E "aafbbffdde" J "dadb" J "d")  (str.++  "dfdbfe" J "eabdbdead" J "fbe" J "bcaafbbffddecdadbcd") ))
(assert (= (str.++  "ddefbee" J J "acdeb" J "ada" J E "ea" J "adadfdfdbfada" J)  (str.++  "ddefbee" J J "acdebcadace" J "bcea" J "adadfdfdbfada" J) ))
(assert (= (str.++  "cacebfdcedbcce" J "bbabc" J "eebabbbfaaceaebfade")  (str.++  J "acebfd" J "edbc" J "ecbbabcceebabbbfaa" J "eaebfade") ))
(assert (>=(* (str.len J) 1) 1))
(assert (<=(* (str.len J) 20) 20))
(assert (>=(* (str.len E) 7) 21))
(check-sat)

(exit)
